\* Problem: Unknown *\

Maximize
 obj: + xp_0_0 + xp_0_1 + xp_1_0 + xp_2_0 + xp_2_1 + xp_2_2 + xp_2_3
 + xp_3_0 + xp_3_1 + xp_4_0 + xp_5_0 + xp_6_0 + xp_6_1 + xp_7_0 + xp_8_0
 + xp_9_0 + xp_10_0 + xp_10_1 + xp_11_0 + xp_12_0 + xp_12_1 + xp_13_0
 + xp_14_0 + xp_15_0 + xp_15_1 + xp_16_0 + xp_17_0 + xp_17_1 + xp_18_0
 + xp_18_1 + xp_19_0 + xp_20_0 + xp_21_0 + xp_21_1 + xp_21_2 + xp_21_3
 + xp_21_4 + xp_22_0 + xp_22_1 + xp_22_2 + xp_23_0 + xp_24_0 + xp_24_1
 + xp_25_0 + xp_26_0 + xp_27_0 + xp_28_0 + xp_28_1 + xp_29_0 + xp_29_1
 + xp_30_0 + xp_31_0 + xp_31_1 + xp_32_0 + xp_33_0 + xp_34_0 + xp_35_0
 + xp_36_0 + xp_37_0 + xp_38_0 + xp_38_1 + xp_39_0 + xp_40_0 + xp_41_0
 + xp_42_0 + xp_42_1 + xp_42_2 + xp_43_0 + xp_44_0 + xp_45_0 + xp_46_0
 + xp_47_0 + xp_48_0 + xp_48_1 + xp_49_0 + xp_50_0 + xp_51_0 + xp_52_0
 + xp_52_1 + xp_53_0 + xp_54_0 + xp_55_0 + xp_56_0 + xp_57_0 + xp_58_0
 + xp_58_1 + xp_59_0 + xp_60_0 + xp_60_1 + xp_60_2 + xp_61_0 + xp_62_0
 + xp_63_0 + xp_63_1 + xp_64_0 + xp_65_0

Subject To
 r_1: + xp_60_2 + xp_53_0 + xp_51_0 + xp_42_2 + xp_40_0 + xp_35_0
 + xp_33_0 <= 153.637538779731
 r_2: + xp_58_1 + xp_15_1 <= 155
 r_3: + xp_56_0 + xp_21_0 + xp_12_0 <= 152.393669634026
 r_4: + xp_65_0 + xp_50_0 + xp_45_0 + xp_24_1 + xp_24_0 + xp_21_2
 + xp_15_0 + xp_10_1 + xp_10_0 + xp_5_0 + xp_2_1 <= 140.768902785674
 r_5: + xp_52_1 + xp_38_1 + xp_31_1 + xp_17_0 + xp_14_0
 <= 152.393669634026
 r_6: + xp_22_2 + xp_22_1 + xp_22_0 + xp_21_4 + xp_21_3 + xp_13_0
 + xp_12_1 + xp_3_0 + xp_2_2 + xp_2_0 <= 148.340353833193
 r_7: + xp_60_1 + xp_48_1 + xp_46_0 + xp_42_1 + xp_42_0 + xp_0_0
 <= 152.393669634026
 r_8: 0 xp_0_0 <= 148.340353833193
 r_9: + xp_64_0 + xp_63_1 + xp_29_1 + xp_25_0 + xp_21_0 + xp_6_0
 <= 153.637538779731
 r_10: + xp_63_0 <= 148.340353833193
 r_11: + xp_60_0 + xp_38_0 + xp_31_0 <= 152.393669634026
 r_12: + xp_62_0 + xp_61_0 + xp_60_2 + xp_60_1 + xp_21_1 + xp_3_1
 + xp_2_3 <= 148.340353833193
 r_13: + xp_64_0 + xp_59_0 + xp_58_1 + xp_56_0 + xp_29_1 + xp_29_0
 + xp_21_0 + xp_20_0 + xp_15_1 + xp_12_0 <= 153.637538779731
 r_14: + xp_60_2 + xp_57_0 + xp_53_0 + xp_42_2 + xp_42_1 + xp_35_0
 + xp_18_0 <= 153.637538779731
 r_15: + xp_63_1 + xp_58_0 <= 152.393669634026
 r_16: + xp_65_0 + xp_55_0 + xp_53_0 + xp_51_0 + xp_50_0 + xp_10_1
 + xp_10_0 <= 155
 r_17: + xp_58_1 + xp_54_0 + xp_52_1 + xp_36_0 + xp_31_1
 <= 140.768902785674
 r_18: + xp_52_0 + xp_21_2 + xp_2_1 <= 152.393669634026
 r_19: + xp_60_0 + xp_48_0 <= 148.340353833193
 r_20: + xp_50_0 + xp_49_0 + xp_48_1 + xp_46_0 + xp_45_0 + xp_22_2
 + xp_21_3 + xp_21_2 + xp_10_1 + xp_2_2 <= 152.393669634026
 r_21: + xp_52_1 + xp_47_0 + xp_26_0 + xp_21_1 + xp_17_1 + xp_17_0
 + xp_7_0 + xp_3_1 + xp_2_3 <= 152.393669634026
 r_22: + xp_61_0 + xp_60_1 + xp_43_0 + xp_42_1 + xp_42_0 + xp_38_1
 <= 148.340353833193
 r_23: + xp_56_0 + xp_52_0 + xp_41_0 + xp_38_0 + xp_34_0 + xp_31_0
 <= 148.340353833193
 r_24: + xp_62_0 + xp_60_2 + xp_44_0 + xp_42_2 + xp_40_0 + xp_39_0
 + xp_21_4 + xp_21_3 + xp_21_1 + xp_12_1 + xp_2_3 + xp_2_2 + xp_2_0
 <= 152.393669634026
 r_25: + xp_62_0 + xp_60_2 + xp_44_0 + xp_42_2 + xp_40_0 + xp_37_0
 + xp_35_0 + xp_33_0 <= 152.393669634026
 r_26: + xp_39_0 + xp_36_0 + xp_32_0 + xp_31_1 <= 152.393669634026
 r_27: + xp_56_0 + xp_52_0 + xp_34_0 + xp_31_0 + xp_30_0
 <= 152.393669634026
 r_28: + xp_60_1 + xp_60_0 + xp_48_1 + xp_48_0 + xp_42_0 + xp_29_1
 + xp_27_0 + xp_25_0 + xp_21_0 + xp_18_1 + xp_8_0 + xp_6_0
 <= 148.340353833193
 r_29: + xp_29_0 + xp_28_0 + xp_24_1 + xp_22_0 + xp_6_1 + xp_0_1
 <= 152.393669634026
 r_30: + xp_63_0 + xp_28_1 + xp_26_0 + xp_24_0 + xp_23_0 + xp_22_2
 + xp_22_1 + xp_21_4 + xp_21_3 + xp_21_2 + xp_21_1 + xp_17_1
 <= 148.340353833193
 r_31: + xp_63_1 + xp_58_0 + xp_28_0 + xp_24_1 + xp_22_0 + xp_19_0
 + xp_17_0 + xp_15_0 + xp_14_0 + xp_13_0 + xp_12_1 <= 152.393669634026
 r_32: + xp_46_0 + xp_42_1 + xp_29_0 + xp_20_0 + xp_18_0 + xp_16_0
 + xp_15_1 + xp_12_0 + xp_6_1 <= 152.393669634026
 r_33: + xp_60_1 + xp_48_1 + xp_42_0 + xp_18_1 + xp_17_1 + xp_11_0
 <= 152.393669634026
 r_34: + xp_26_0 + xp_23_0 + xp_22_2 + xp_21_3 + xp_21_2 + xp_21_1
 + xp_17_1 + xp_10_1 + xp_7_0 + xp_4_0 + xp_3_1 + xp_2_3 + xp_2_2
 <= 148.340353833193
 r_35: + xp_60_0 + xp_48_0 + xp_8_0 + xp_6_1 + xp_6_0 + xp_1_0 + xp_0_1
 <= 148.340353833193
 r_36: + xp_63_0 + xp_28_1 + xp_24_0 + xp_22_1 + xp_21_4 + xp_10_0
 + xp_9_0 + xp_5_0 + xp_3_0 + xp_2_1 + xp_2_0 + xp_0_0
 <= 148.340353833193

Bounds
 0 <= xp_0_0 <= 5.65481758652947
 0 <= xp_0_1 <= 22.6192703461179
 0 <= xp_1_0 <= 22.9092609915809
 0 <= xp_2_0 <= 10.0916744621141
 0 <= xp_2_1 <= 5.04583723105706
 0 <= xp_2_2 <= 5.04583723105706
 0 <= xp_2_3 <= 5.04583723105706
 0 <= xp_3_0 <= 11.7156220767072
 0 <= xp_3_1 <= 2.9289055191768
 0 <= xp_4_0 <= 28.7090739008419
 0 <= xp_5_0 <= 22.9092609915809
 0 <= xp_6_0 <= 10.555659494855
 0 <= xp_6_1 <= 15.8334892422825
 0 <= xp_7_0 <= 22.3292797006548
 0 <= xp_8_0 <= 25.3741814780168
 0 <= xp_9_0 <= 17.689429373246
 0 <= xp_10_0 <= 13.2235734331151
 0 <= xp_10_1 <= 3.30589335827876
 0 <= xp_11_0 <= 25.9541627689429
 0 <= xp_12_0 <= 10.178671655753
 0 <= xp_12_1 <= 6.78578110383536
 0 <= xp_13_0 <= 15.2245088868101
 0 <= xp_14_0 <= 23.0542563143124
 0 <= xp_15_0 <= 11.4836295603368
 0 <= xp_15_1 <= 17.2254443405051
 0 <= xp_16_0 <= 27.4041159962582
 0 <= xp_17_0 <= 14.4415341440599
 0 <= xp_17_1 <= 9.62768942937324
 0 <= xp_18_0 <= 8.23573433115061
 0 <= xp_18_1 <= 12.3536014967259
 0 <= xp_19_0 <= 19.8643592142189
 0 <= xp_20_0 <= 23.6342376052385
 0 <= xp_21_0 <= 3.79887745556595
 0 <= xp_21_1 <= 3.79887745556595
 0 <= xp_21_2 <= 3.79887745556595
 0 <= xp_21_3 <= 3.79887745556595
 0 <= xp_21_4 <= 3.79887745556595
 0 <= xp_22_0 <= 4.61085126286249
 0 <= xp_22_1 <= 13.8325537885875
 0 <= xp_22_2 <= 4.61085126286249
 0 <= xp_23_0 <= 23.7792329279701
 0 <= xp_24_0 <= 3.71188026192703
 0 <= xp_24_1 <= 14.8475210477081
 0 <= xp_25_0 <= 28.2740879326473
 0 <= xp_26_0 <= 18.8493919550982
 0 <= xp_27_0 <= 15.2245088868101
 0 <= xp_28_0 <= 15.0505144995323
 0 <= xp_28_1 <= 10.0336763330215
 0 <= xp_29_0 <= 13.6585594013096
 0 <= xp_29_1 <= 9.10570626753976
 0 <= xp_30_0 <= 28.1290926099158
 0 <= xp_31_0 <= 3.62488306828812
 0 <= xp_31_1 <= 14.4995322731525
 0 <= xp_32_0 <= 15.9494855004677
 0 <= xp_33_0 <= 19.1393826005613
 0 <= xp_34_0 <= 23.0542563143124
 0 <= xp_35_0 <= 15.8044901777362
 0 <= xp_36_0 <= 18.2694106641721
 0 <= xp_37_0 <= 14.4995322731525
 0 <= xp_38_0 <= 10.7876520112254
 0 <= xp_38_1 <= 7.19176800748363
 0 <= xp_39_0 <= 15.3695042095416
 0 <= xp_40_0 <= 19.7193638914874
 0 <= xp_41_0 <= 20.8793264733396
 0 <= xp_42_0 <= 4.87184284377923
 0 <= xp_42_1 <= 14.6155285313377
 0 <= xp_42_2 <= 4.87184284377923
 0 <= xp_43_0 <= 17.2544434050514
 0 <= xp_44_0 <= 18.4144059869036
 0 <= xp_45_0 <= 15.2245088868101
 0 <= xp_46_0 <= 21.3143124415341
 0 <= xp_47_0 <= 20.2993451824135
 0 <= xp_48_0 <= 11.4836295603368
 0 <= xp_48_1 <= 17.2254443405051
 0 <= xp_49_0 <= 15.0795135640786
 0 <= xp_50_0 <= 16.3844714686623
 0 <= xp_51_0 <= 24.5042095416277
 0 <= xp_52_0 <= 21.6913002806361
 0 <= xp_52_1 <= 5.42282507015903
 0 <= xp_53_0 <= 28.4190832553789
 0 <= xp_54_0 <= 27.9840972871843
 0 <= xp_55_0 <= 21.8942937324602
 0 <= xp_56_0 <= 15.3695042095416
 0 <= xp_57_0 <= 18.1244153414406
 0 <= xp_58_0 <= 22.5032740879326
 0 <= xp_58_1 <= 5.62581852198316
 0 <= xp_59_0 <= 28.1290926099158
 0 <= xp_60_0 <= 10.7006548175865
 0 <= xp_60_1 <= 3.56688493919551
 0 <= xp_60_2 <= 3.56688493919551
 0 <= xp_61_0 <= 26.244153414406
 0 <= xp_62_0 <= 27.9840972871843
 0 <= xp_63_0 <= 20.9953227315248
 0 <= xp_63_1 <= 5.2488306828812
 0 <= xp_64_0 <= 28.2740879326473
 0 <= xp_65_0 <= 20.444340505145

End
